c nIsolatedPIs 0
c maxPI 32
p cnf 240 625
c gate 33 -14 -30 0
-14 -33 0
-30 -33 0
14 30 33 0
c gate 34 14 30 0
14 -34 0
30 -34 0
-14 -30 34 0
c gate 35 -33 -34 0
-33 -35 0
-34 -35 0
33 34 35 0
c gate 36 13 29 0
13 -36 0
29 -36 0
-13 -29 36 0
c gate 37 12 28 0
12 -37 0
28 -37 0
-12 -28 37 0
c gate 38 -36 -37 0
-36 -38 0
-37 -38 0
36 37 38 0
c gate 39 35 -38 0
35 -39 0
-38 -39 0
-35 38 39 0
c gate 40 -35 38 0
-35 -40 0
38 -40 0
35 -38 40 0
c gate 41 -39 -40 0
-39 -41 0
-40 -41 0
39 40 41 0
c gate 42 -13 -29 0
-13 -42 0
-29 -42 0
13 29 42 0
c gate 43 -12 -28 0
-12 -43 0
-28 -43 0
12 28 43 0
c gate 44 -37 -43 0
-37 -44 0
-43 -44 0
37 43 44 0
c gate 45 -11 -27 0
-11 -45 0
-27 -45 0
11 27 45 0
c gate 46 11 27 0
11 -46 0
27 -46 0
-11 -27 46 0
c gate 47 -10 -26 0
-10 -47 0
-26 -47 0
10 26 47 0
c gate 48 8 24 0
8 -48 0
24 -48 0
-8 -24 48 0
c gate 49 -8 -24 0
-8 -49 0
-24 -49 0
8 24 49 0
c gate 50 -48 -49 0
-48 -50 0
-49 -50 0
48 49 50 0
c gate 51 -7 23 0
-7 -51 0
23 -51 0
7 -23 51 0
c gate 52 7 -23 0
7 -52 0
-23 -52 0
-7 23 52 0
c gate 53 -51 -52 0
-51 -53 0
-52 -53 0
51 52 53 0
c gate 54 -6 -22 0
-6 -54 0
-22 -54 0
6 22 54 0
c gate 55 4 20 0
4 -55 0
20 -55 0
-4 -20 55 0
c gate 56 2 18 0
2 -56 0
18 -56 0
-2 -18 56 0
c gate 57 1 17 0
1 -57 0
17 -57 0
-1 -17 57 0
c gate 58 3 19 0
3 -58 0
19 -58 0
-3 -19 58 0
c gate 59 -57 -58 0
-57 -59 0
-58 -59 0
57 58 59 0
c gate 60 -56 59 0
-56 -60 0
59 -60 0
56 -59 60 0
c gate 61 4 -20 0
4 -61 0
-20 -61 0
-4 20 61 0
c gate 62 -4 20 0
-4 -62 0
20 -62 0
4 -20 62 0
c gate 63 -61 -62 0
-61 -63 0
-62 -63 0
61 62 63 0
c gate 64 -3 -19 0
-3 -64 0
-19 -64 0
3 19 64 0
c gate 65 -63 -64 0
-63 -65 0
-64 -65 0
63 64 65 0
c gate 66 -60 65 0
-60 -66 0
65 -66 0
60 -65 66 0
c gate 67 -55 -66 0
-55 -67 0
-66 -67 0
55 66 67 0
c gate 68 -5 21 0
-5 -68 0
21 -68 0
5 -21 68 0
c gate 69 5 -21 0
5 -69 0
-21 -69 0
-5 21 69 0
c gate 70 -68 -69 0
-68 -70 0
-69 -70 0
68 69 70 0
c gate 71 -67 -70 0
-67 -71 0
-70 -71 0
67 70 71 0
c gate 72 -2 18 0
-2 -72 0
18 -72 0
2 -18 72 0
c gate 73 57 -72 0
57 -73 0
-72 -73 0
-57 72 73 0
c gate 74 -2 73 0
-2 -74 0
73 -74 0
2 -73 74 0
c gate 75 -58 74 0
-58 -75 0
74 -75 0
58 -74 75 0
c gate 76 66 75 0
66 -76 0
75 -76 0
-66 -75 76 0
c gate 77 71 -76 0
71 -77 0
-76 -77 0
-71 76 77 0
c gate 78 6 22 0
6 -78 0
22 -78 0
-6 -22 78 0
c gate 79 -54 -78 0
-54 -79 0
-78 -79 0
54 78 79 0
c gate 80 5 21 0
5 -80 0
21 -80 0
-5 -21 80 0
c gate 81 79 -80 0
79 -81 0
-80 -81 0
-79 80 81 0
c gate 82 -77 81 0
-77 -82 0
81 -82 0
77 -81 82 0
c gate 83 -54 -82 0
-54 -83 0
-82 -83 0
54 82 83 0
c gate 84 -53 -83 0
-53 -84 0
-83 -84 0
53 83 84 0
c gate 85 50 84 0
50 -85 0
84 -85 0
-50 -84 85 0
c gate 86 -7 -23 0
-7 -86 0
-23 -86 0
7 23 86 0
c gate 87 -48 86 0
-48 -87 0
86 -87 0
48 -86 87 0
c gate 88 -9 -25 0
-9 -88 0
-25 -88 0
9 25 88 0
c gate 89 -49 -88 0
-49 -89 0
-88 -89 0
49 88 89 0
c gate 90 -87 89 0
-87 -90 0
89 -90 0
87 -89 90 0
c gate 91 -85 90 0
-85 -91 0
90 -91 0
85 -90 91 0
c gate 92 10 26 0
10 -92 0
26 -92 0
-10 -26 92 0
c gate 93 9 25 0
9 -93 0
25 -93 0
-9 -25 93 0
c gate 94 -92 -93 0
-92 -94 0
-93 -94 0
92 93 94 0
c gate 95 -91 94 0
-91 -95 0
94 -95 0
91 -94 95 0
c gate 96 -47 -95 0
-47 -96 0
-95 -96 0
47 95 96 0
c gate 97 -46 -96 0
-46 -97 0
-96 -97 0
46 96 97 0
c gate 98 -45 -97 0
-45 -98 0
-97 -98 0
45 97 98 0
c gate 99 44 98 0
44 -99 0
98 -99 0
-44 -98 99 0
c gate 100 38 -99 0
38 -100 0
-99 -100 0
-38 99 100 0
c gate 101 -42 -100 0
-42 -101 0
-100 -101 0
42 100 101 0
c gate 102 -35 101 0
-35 -102 0
101 -102 0
35 -101 102 0
c gate 103 35 -101 0
35 -103 0
-101 -103 0
-35 101 103 0
c gate 104 -102 -103 0
-102 -104 0
-103 -104 0
102 103 104 0
c gate 105 41 104 0
41 -105 0
104 -105 0
-41 -104 105 0
c gate 106 -41 -104 0
-41 -106 0
-104 -106 0
41 104 106 0
c gate 107 -105 -106 0
-105 -107 0
-106 -107 0
105 106 107 0
c gate 108 -45 -46 0
-45 -108 0
-46 -108 0
45 46 108 0
c gate 109 -10 26 0
-10 -109 0
26 -109 0
10 -26 109 0
c gate 110 -9 25 0
-9 -110 0
25 -110 0
9 -25 110 0
c gate 111 6 -22 0
6 -111 0
-22 -111 0
-6 22 111 0
c gate 112 53 -111 0
53 -112 0
-111 -112 0
-53 111 112 0
c gate 113 -1 17 0
-1 -113 0
17 -113 0
1 -17 113 0
c gate 114 -72 -113 0
-72 -114 0
-113 -114 0
72 113 114 0
c gate 115 2 -18 0
2 -115 0
-18 -115 0
-2 18 115 0
c gate 116 3 -19 0
3 -116 0
-19 -116 0
-3 19 116 0
c gate 117 -115 -116 0
-115 -117 0
-116 -117 0
115 116 117 0
c gate 118 -114 117 0
-114 -118 0
117 -118 0
114 -117 118 0
c gate 119 -3 19 0
-3 -119 0
19 -119 0
3 -19 119 0
c gate 120 -62 -119 0
-62 -120 0
-119 -120 0
62 119 120 0
c gate 121 -118 120 0
-118 -121 0
120 -121 0
118 -120 121 0
c gate 122 -61 -69 0
-61 -122 0
-69 -122 0
61 69 122 0
c gate 123 -121 122 0
-121 -123 0
122 -123 0
121 -122 123 0
c gate 124 -68 -79 0
-68 -124 0
-79 -124 0
68 79 124 0
c gate 125 -123 124 0
-123 -125 0
124 -125 0
123 -124 125 0
c gate 126 112 -125 0
112 -126 0
-125 -126 0
-112 125 126 0
c gate 127 -51 -126 0
-51 -127 0
-126 -127 0
51 126 127 0
c gate 128 -50 127 0
-50 -128 0
127 -128 0
50 -127 128 0
c gate 129 8 -24 0
8 -129 0
-24 -129 0
-8 24 129 0
c gate 130 9 -25 0
9 -130 0
-25 -130 0
-9 25 130 0
c gate 131 -129 -130 0
-129 -131 0
-130 -131 0
129 130 131 0
c gate 132 -128 131 0
-128 -132 0
131 -132 0
128 -131 132 0
c gate 133 -110 -132 0
-110 -133 0
-132 -133 0
110 132 133 0
c gate 134 10 -26 0
10 -134 0
-26 -134 0
-10 26 134 0
c gate 135 -109 -134 0
-109 -135 0
-134 -135 0
109 134 135 0
c gate 136 -133 135 0
-133 -136 0
135 -136 0
133 -135 136 0
c gate 137 -109 -136 0
-109 -137 0
-136 -137 0
109 136 137 0
c gate 138 -108 -137 0
-108 -138 0
-137 -138 0
108 137 138 0
c gate 139 16 32 0
16 -139 0
32 -139 0
-16 -32 139 0
c gate 140 -16 -32 0
-16 -140 0
-32 -140 0
16 32 140 0
c gate 141 -139 -140 0
-139 -141 0
-140 -141 0
139 140 141 0
c gate 142 -35 -141 0
-35 -142 0
-141 -142 0
35 141 142 0
c gate 143 -15 -31 0
-15 -143 0
-31 -143 0
15 31 143 0
c gate 144 15 31 0
15 -144 0
31 -144 0
-15 -31 144 0
c gate 145 -143 -144 0
-143 -145 0
-144 -145 0
143 144 145 0
c gate 146 -36 -42 0
-36 -146 0
-42 -146 0
36 42 146 0
c gate 147 -44 -146 0
-44 -147 0
-146 -147 0
44 146 147 0
c gate 148 -145 147 0
-145 -148 0
147 -148 0
145 -147 148 0
c gate 149 142 148 0
142 -149 0
148 -149 0
-142 -148 149 0
c gate 150 138 149 0
138 -150 0
149 -150 0
-138 -149 150 0
c gate 151 108 137 0
108 -151 0
137 -151 0
-108 -137 151 0
c gate 152 -138 -151 0
-138 -152 0
-151 -152 0
138 151 152 0
c gate 153 -131 135 0
-131 -153 0
135 -153 0
131 -135 153 0
c gate 154 -134 -153 0
-134 -154 0
-153 -154 0
134 153 154 0
c gate 155 108 -154 0
108 -155 0
-154 -155 0
-108 154 155 0
c gate 156 -152 -155 0
-152 -156 0
-155 -156 0
152 155 156 0
c gate 157 131 -135 0
131 -157 0
-135 -157 0
-131 135 157 0
c gate 158 -153 -157 0
-153 -158 0
-157 -158 0
153 157 158 0
c gate 159 133 -135 0
133 -159 0
-135 -159 0
-133 135 159 0
c gate 160 -136 -159 0
-136 -160 0
-159 -160 0
136 159 160 0
c gate 161 -158 -160 0
-158 -161 0
-160 -161 0
158 160 161 0
c gate 162 158 160 0
158 -162 0
160 -162 0
-158 -160 162 0
c gate 163 -99 107 0
-99 -163 0
107 -163 0
99 -107 163 0
c gate 164 -82 -84 0
-82 -164 0
-84 -164 0
82 84 164 0
c gate 165 56 57 0
56 -165 0
57 -165 0
-56 -57 165 0
c gate 166 164 165 0
164 -166 0
165 -166 0
-164 -165 166 0
c gate 167 -85 -166 0
-85 -167 0
-166 -167 0
85 166 167 0
c gate 168 163 167 0
163 -168 0
167 -168 0
-163 -167 168 0
c gate 169 -90 94 0
-90 -169 0
94 -169 0
90 -94 169 0
c gate 170 -45 -47 0
-45 -170 0
-47 -170 0
45 47 170 0
c gate 171 44 170 0
44 -171 0
170 -171 0
-44 -170 171 0
c gate 172 -169 171 0
-169 -172 0
171 -172 0
169 -171 172 0
c gate 173 -98 172 0
-98 -173 0
172 -173 0
98 -172 173 0
c gate 174 85 -173 0
85 -174 0
-173 -174 0
-85 173 174 0
c gate 175 163 -174 0
163 -175 0
-174 -175 0
-163 174 175 0
c gate 176 -33 -103 0
-33 -176 0
-103 -176 0
33 103 176 0
c gate 177 145 -176 0
145 -177 0
-176 -177 0
-145 176 177 0
c gate 178 -143 -177 0
-143 -178 0
-177 -178 0
143 177 178 0
c gate 179 141 -178 0
141 -179 0
-178 -179 0
-141 178 179 0
c gate 180 -141 178 0
-141 -180 0
178 -180 0
141 -178 180 0
c gate 181 -179 -180 0
-179 -181 0
-180 -181 0
179 180 181 0
c gate 182 -34 -39 0
-34 -182 0
-39 -182 0
34 39 182 0
c gate 183 145 -182 0
145 -183 0
-182 -183 0
-145 182 183 0
c gate 184 -144 -183 0
-144 -184 0
-183 -184 0
144 183 184 0
c gate 185 141 184 0
141 -185 0
184 -185 0
-141 -184 185 0
c gate 186 -141 -184 0
-141 -186 0
-184 -186 0
141 184 186 0
c gate 187 -185 -186 0
-185 -187 0
-186 -187 0
185 186 187 0
c gate 188 -181 187 0
-181 -188 0
187 -188 0
181 -187 188 0
c gate 189 181 -187 0
181 -189 0
-187 -189 0
-181 187 189 0
c gate 190 -145 182 0
-145 -190 0
182 -190 0
145 -182 190 0
c gate 191 -183 -190 0
-183 -191 0
-190 -191 0
183 190 191 0
c gate 192 -145 176 0
-145 -192 0
176 -192 0
145 -176 192 0
c gate 193 -177 -192 0
-177 -193 0
-192 -193 0
177 192 193 0
c gate 194 -191 -193 0
-191 -194 0
-193 -194 0
191 193 194 0
c gate 195 191 193 0
191 -195 0
193 -195 0
-191 -193 195 0
c gate 196 99 -146 0
99 -196 0
-146 -196 0
-99 146 196 0
c gate 197 -106 -196 0
-106 -197 0
-196 -197 0
106 196 197 0
c gate 198 -195 -197 0
-195 -198 0
-197 -198 0
195 197 198 0
c gate 199 -194 -198 0
-194 -199 0
-198 -199 0
194 198 199 0
c gate 200 -189 -199 0
-189 -200 0
-199 -200 0
189 199 200 0
c gate 201 -188 -200 0
-188 -201 0
-200 -201 0
188 200 201 0
c gate 202 -175 201 0
-175 -202 0
201 -202 0
175 -201 202 0
c gate 203 -168 -202 0
-168 -203 0
-202 -203 0
168 202 203 0
c gate 204 178 185 0
178 -204 0
185 -204 0
-178 -185 204 0
c gate 205 -125 -204 0
-125 -205 0
-204 -205 0
125 204 205 0
c gate 206 203 205 0
203 -206 0
205 -206 0
-203 -205 206 0
c gate 207 -53 125 0
-53 -207 0
125 -207 0
53 -125 207 0
c gate 208 -125 -139 0
-125 -208 0
-139 -208 0
125 139 208 0
c gate 209 -185 208 0
-185 -209 0
208 -209 0
185 -208 209 0
c gate 210 179 209 0
179 -210 0
209 -210 0
-179 -209 210 0
c gate 211 -207 -210 0
-207 -211 0
-210 -211 0
207 210 211 0
c gate 212 -206 211 0
-206 -212 0
211 -212 0
206 -211 212 0
c gate 213 -128 -212 0
-128 -213 0
-212 -213 0
128 212 213 0
c gate 214 50 112 0
50 -214 0
112 -214 0
-50 -112 214 0
c gate 215 127 214 0
127 -215 0
214 -215 0
-127 -214 215 0
c gate 216 -128 -215 0
-128 -216 0
-215 -216 0
128 215 216 0
c gate 217 -110 -130 0
-110 -217 0
-130 -217 0
110 130 217 0
c gate 218 -215 217 0
-215 -218 0
217 -218 0
215 -217 218 0
c gate 219 -216 -218 0
-216 -219 0
-218 -219 0
216 218 219 0
c gate 220 -213 -219 0
-213 -220 0
-219 -220 0
213 219 220 0
c gate 221 -162 -220 0
-162 -221 0
-220 -221 0
162 220 221 0
c gate 222 -161 -221 0
-161 -222 0
-221 -222 0
161 221 222 0
c gate 223 -156 222 0
-156 -223 0
222 -223 0
156 -222 223 0
c gate 224 -137 155 0
-137 -224 0
155 -224 0
137 -155 224 0
c gate 225 -138 -224 0
-138 -225 0
-224 -225 0
138 224 225 0
c gate 226 -223 225 0
-223 -226 0
225 -226 0
223 -225 226 0
c gate 227 -150 -226 0
-150 -227 0
-226 -227 0
150 226 227 0
c gate 228 -167 -174 0
-167 -228 0
-174 -228 0
167 174 228 0
c gate 229 -99 228 0
-99 -229 0
228 -229 0
99 -228 229 0
c gate 230 -196 -229 0
-196 -230 0
-229 -230 0
196 229 230 0
c gate 231 227 -230 0
227 -231 0
-230 -231 0
-227 230 231 0
c gate 232 -74 164 0
-74 -232 0
164 -232 0
74 -164 232 0
c gate 233 -173 -232 0
-173 -233 0
-232 -233 0
173 232 233 0
c gate 234 -99 -233 0
-99 -234 0
-233 -234 0
99 233 234 0
c gate 235 -196 -234 0
-196 -235 0
-234 -235 0
196 234 235 0
c gate 236 -227 235 0
-227 -236 0
235 -236 0
227 -235 236 0
c gate 237 -231 -236 0
-231 -237 0
-236 -237 0
231 236 237 0
c gate 238 107 -237 0
107 -238 0
-237 -238 0
-107 237 238 0
c gate 239 -107 237 0
-107 -239 0
237 -239 0
107 -237 239 0
c gate 240 -238 -239 0
-238 -240 0
-239 -240 0
238 239 240 0
c PO
-240 0
